1 252 0 190 0
2 66 0 50 0
3 150 0 230 1
4 57 0 240 0
5 102 50 50 0
6 62 0 250 1
7 163 220 0 1
8 290 0 240 1
9 121 0 220 0
10 31 0 230 0
11 109 0 0 0
12 151 290 0 1
13 1 0 190 0
14 10 0 240 0
15 197 0 180 1
16 203 200 0 0
17 45 0 210 0
18 35 0 0 0
19 218 200 200 0
20 14 230 0 0
21 216 190 140 1
22 163 0 180 1
23 237 150 0 1
24 144 230 0 1
25 35 140 0 1
26 140 210 0 1
27 151 230 0 1
28 154 110 0 0
29 212 180 0 0
30 242 0 210 0
31 240 0 0 1
32 202 0 0 1
33 29 200 0 0
34 92 0 210 1
35 17 0 0 0
36 57 240 240 0
37 41 180 180 0
38 217 0 300 1
39 218 0 200 1
40 151 230 230 1
41 242 220 0 0
42 145 0 0 0
43 217 0 220 0
44 44 290 140 1
45 35 0 310 0
46 17 0 220 1
47 86 0 0 1
48 151 0 210 1
49 75 0 80 0
50 290 230 0 1
51 75 0 160 0
52 121 140 110 1
53 234 230 0 0
54 217 0 140 1
55 152 170 0 1
56 197 0 0 0
57 154 0 0 0
58 217 0 50 1
59 14 0 0 1
60 9 0 50 0
61 203 200 200 0
62 267 210 0 1
63 31 0 310 0
64 154 0 150 0
65 10 240 240 0
66 9 200 50 1
67 202 240 0 1
68 187 0 0 1
69 229 0 190 1
70 145 0 190 0
71 130 0 240 1
72 187 240 230 1
73 10 0 0 0
74 168 200 210 1
75 267 0 200 0
76 23 0 200 1
77 163 220 210 0
78 266 0 160 1
79 31 0 0 0
80 262 300 0 0
81 266 0 0 1
82 145 170 0 0
83 168 250 210 0
84 216 210 250 0
85 145 190 190 1
86 109 200 0 1
87 217 290 0 0
88 86 200 200 1
89 197 190 190 1
90 240 0 240 1
91 169 200 0 1
92 255 0 0 0
93 242 210 210 1
94 45 0 0 0
95 217 220 0 0
96 62 280 0 1
97 144 0 200 1
98 273 190 0 0
99 9 100 0 1
100 172 220 0 0
101 105 0 220 0
102 202 240 240 1
103 197 190 0 0
104 44 150 0 1
105 103 160 50 1
106 262 240 0 0
107 164 0 0 1
108 261 0 0 0
109 57 240 0 0
110 262 0 0 0
111 32 200 0 1
112 273 0 180 0
113 9 200 0 0
114 121 210 220 0
115 266 190 0 0
116 212 0 190 0
117 75 190 0 0
118 32 0 170 1
119 62 190 190 0
120 138 0 0 1
121 144 230 220 0
122 246 240 230 1
123 92 180 0 1
124 130 230 240 1
125 203 0 190 1
126 237 0 0 0
127 242 0 0 1
128 73 0 140 0
129 44 50 60 0
130 59 0 160 0
131 119 0 170 0
132 216 0 0 1
133 263 0 220 1
134 1 50 50 1
135 255 0 230 0
136 290 240 240 0
137 253 0 0 1
138 62 0 160 1
139 262 180 180 0
140 57 0 0 1
141 73 140 280 0
142 273 190 190 0
143 41 0 0 0
144 234 0 0 0
145 44 0 60 0
146 1 50 0 1
147 1 0 0 0
148 34 200 0 0
149 29 0 0 0
150 151 0 0 1
151 216 60 50 0
152 119 0 0 0
153 252 0 0 1
154 169 210 210 0
155 44 0 210 0
156 254 0 0 0
157 217 0 0 1
158 103 160 0 1
159 255 230 0 1
160 151 0 290 1
161 37 0 0 0
162 62 0 0 1
163 242 110 0 1
164 59 200 200 0
165 172 0 170 1
166 1 240 0 0
167 1 180 190 0
168 96 220 230 1
169 124 240 230 0
170 119 190 0 0
171 102 0 0 1
172 32 0 0 0
173 169 0 0 0
174 23 0 0 0
175 266 190 190 0
176 73 110 0 1
177 140 0 0 0
178 212 190 190 1
179 217 90 0 0
180 168 0 210 1
181 103 0 0 0
182 10 0 290 1
183 152 200 200 0
184 168 90 90 1
185 169 0 210 0
186 130 0 0 0
187 102 0 180 0
188 44 0 0 0
189 124 0 150 1
190 254 0 230 0
191 124 0 0 0
192 164 0 240 1
193 152 0 0 0
194 96 0 0 0
195 10 230 0 1
196 59 0 0 0
197 91 190 0 1
198 152 0 200 0
199 86 0 200 1
200 62 190 0 0
201 262 0 130 0
202 203 0 0 1
203 44 280 0 1
204 253 120 0 0
205 187 240 0 1
206 164 210 0 1
207 121 0 0 1
208 44 150 140 0
209 237 170 170 1
210 263 250 0 1
211 261 210 0 0
212 267 0 0 0
213 73 0 0 0
214 168 0 0 1
215 237 210 0 1
216 163 0 0 1
217 9 0 0 0
218 273 0 0 1
219 267 210 210 0
220 66 0 0 1
221 34 0 220 1
222 237 0 170 1
223 96 200 0 0
224 92 0 0 1
225 130 140 0 0
226 218 0 0 1
227 246 0 0 1
228 96 0 230 1
229 216 0 140 0
230 154 0 250 1
231 102 50 0 0
232 187 0 210 1
233 105 0 0 0
234 37 160 0 0
235 246 0 210 0
236 34 0 0 1
237 172 0 0 1
238 23 0 100 0
239 216 0 250 1
240 216 110 250 0
241 35 0 170 0
242 31 220 0 0
243 164 240 240 1
244 244 170 0 0
245 218 200 0 1
246 59 200 0 1
247 263 250 240 0
248 216 110 140 0
249 216 60 0 1
250 91 0 0 0
251 138 0 230 1
252 121 140 0 1
253 217 90 70 1
254 124 240 0 1
255 59 270 0 1
256 144 0 0 1
257 229 240 0 0
258 246 240 0 0
259 66 0 100 0
260 290 0 0 0
261 212 0 0 1
262 119 190 190 0
263 262 180 0 1
264 32 200 200 0
265 229 0 0 0
266 59 0 80 0
267 144 290 220 1
268 66 160 0 1
269 263 0 0 0
270 252 230 220 1
271 9 100 50 1
272 41 180 0 0
273 41 0 180 0
274 150 0 0 1
275 75 0 0 0
276 253 0 210 0
277 92 210 210 1
278 216 180 0 1
279 217 150 0 0
280 168 90 0 0
281 45 200 0 0
282 244 0 0 0
283 86 200 0 0
284 244 0 240 0
285 252 230 0 0
286 29 0 60 0
287 202 0 200 0
288 154 150 150 1
289 255 230 230 0
290 73 0 280 0
291 102 50 100 1
291 293 15534 0.016263